p cnf 16 18
1 -2 -3 7 0
1 -2 -3 -7 0
2 -4 3 8 0
2 -4 3 -8 0
3 4 5 9 0
3 4 5 -9 0
4 6 10 11 0
4 6 10 -11 0
4 6 -10 12 0
4 6 -10 -12 0
5 2 11 13 0
5 2 11 -13 0
5 2 -11 14 0
5 2 -11 -14 0
6 -5 12 15 0
6 -5 12 -15 0
6 -5 -12 16 0
6 -5 -12 -16 0
